63110166672236008695015,4,1,2,014,9,1,2,013,11,1,2,014,10,1,2,03,6,1,2,012,9,1,2,013,10,1,2,08,1,1,2,012,5,1,2,05,7,1,2,02,4,1,2,05,9,1,2,014,11,1,2,02,12,1,2,09,6,1,2,013,2,1,2,05,3,1,2,06,10,1,2,014,13,1,2,015,14,1,2,015,14,1,2,012,11,1,2,04,4,1,2,010,1,1,2,01,2,1,2,013,14,1,2,013,3,1,2,013,3,1,2,014,1,1,2,08,1,1,2,010,7,1,2,02,8,1,2,01,1,1,2,09,13,1,2,011,9,1,2,015,11,1,2,011,8,1,2,06,3,1,2,07,9,1,2,013,2,1,2,06,8,1,2,015,4,1,2,015,8,1,2,08,11,1,2,09,4,1,2,03,2,1,2,011,12,1,2,04,5,1,2,05,1,1,2,05,14,1,2,0